proyfinal/src/viki/013/experimentInOfficeAgust.take6.output/011b3c00-4661-4d89-803d-271e03dedff7.als.dat
{'cnf.clauses': '118081',
 'cnf.totvars': '69608',
 'conflict literals': '59',
 'conflicts': '18',
 'decisions': '2071',
 'memused.mb': '16.14',
 'outcome': 'UNSAT',
 'propagations': '18786',
 'restarts': '1',
 'solver.msecs': 39,
 'task.msecs': 115}
