proyfinal/src/viki/013/experimentInOfficeAgust.take6.output/011b3c00-4661-4d89-803d-271e03dedff7.als.out
Reading from standard input... Use '--help' for help.
============================[ Problem Statistics ]=============================
|                                                                             |
|  Number of variables:         69608                                         |
|  Number of clauses:          118081                                         |
|  Parse time:                   0.03 s                                       |
|                                                                             |
============================[ Search Statistics ]==============================
| Conflicts |          ORIGINAL         |          LEARNT          | Progress |
|           |    Vars  Clauses Literals |    Limit  Clauses Lit/Cl |          |
===============================================================================
===============================================================================
restarts              : 1
conflicts             : 18             (455 /sec)
decisions             : 2071           (0.00 % random) (52347 /sec)
propagations          : 18786          (474838 /sec)
conflict literals     : 59             (0.00 % deleted)
Memory used           : 16.14 MB
CPU time              : 0.039563 s

UNSATISFIABLE
